<?xml version = "1.0" standalone="yes"?>
<!-- This file has been generated by DOcplex version 2.23.222  -->
<CPLEXSolution version="1.0">
 <header
   problemName="CVRP"
   objectiveValue="29617.7"
  />
 <variables>
  <variable name="x_0_1" index="0" value="1.00000"/>
  <variable name="x_0_2" index="1" value="1.00000"/>
  <variable name="x_0_3" index="2" value="1.00000"/>
  <variable name="x_0_4" index="3" value="1.00000"/>
  <variable name="x_0_5" index="4" value="1.00000"/>
  <variable name="x_0_6" index="5" value="1.00000"/>
  <variable name="x_0_7" index="6" value="1.00000"/>
  <variable name="x_0_8" index="7" value="1.00000"/>
  <variable name="x_0_9" index="8" value="1.00000"/>
  <variable name="x_0_10" index="9" value="1.00000"/>
  <variable name="x_0_11" index="10" value="1.00000"/>
  <variable name="x_0_13" index="12" value="1.00000"/>
  <variable name="x_0_14" index="13" value="1.00000"/>
  <variable name="x_0_16" index="15" value="1.00000"/>
  <variable name="x_0_18" index="17" value="1.00000"/>
  <variable name="x_0_19" index="18" value="1.00000"/>
  <variable name="x_0_20" index="19" value="1.00000"/>
  <variable name="x_0_21" index="20" value="1.00000"/>
  <variable name="x_0_23" index="22" value="1.00000"/>
  <variable name="x_0_25" index="24" value="1.00000"/>
  <variable name="x_0_29" index="28" value="1.00000"/>
  <variable name="x_0_30" index="29" value="1.00000"/>
  <variable name="x_1_0" index="30" value="1.00000"/>
  <variable name="x_2_0" index="60" value="1.00000"/>
  <variable name="x_3_15" index="104" value="1.00000"/>
  <variable name="x_4_28" index="147" value="1.00000"/>
  <variable name="x_5_0" index="150" value="1.00000"/>
  <variable name="x_6_0" index="180" value="1.00000"/>
  <variable name="x_7_0" index="210" value="1.00000"/>
  <variable name="x_8_0" index="240" value="1.00000"/>
  <variable name="x_9_12" index="281" value="1.00000"/>
  <variable name="x_10_0" index="300" value="1.00000"/>
  <variable name="x_11_0" index="330" value="1.00000"/>
  <variable name="x_12_0" index="360" value="1.00000"/>
  <variable name="x_13_0" index="390" value="1.00000"/>
  <variable name="x_14_0" index="420" value="1.00000"/>
  <variable name="x_15_0" index="450" value="1.00000"/>
  <variable name="x_16_0" index="480" value="1.00000"/>
  <variable name="x_17_0" index="510" value="1.00000"/>
  <variable name="x_18_17" index="557" value="1.00000"/>
  <variable name="x_19_26" index="595" value="1.00000"/>
  <variable name="x_20_22" index="621" value="1.00000"/>
  <variable name="x_21_0" index="630" value="1.00000"/>
  <variable name="x_22_0" index="660" value="1.00000"/>
  <variable name="x_23_0" index="690" value="1.00000"/>
  <variable name="x_24_0" index="720" value="1.00000"/>
  <variable name="x_25_0" index="750" value="1.00000"/>
  <variable name="x_26_24" index="804" value="1.00000"/>
  <variable name="x_27_0" index="810" value="1.00000"/>
  <variable name="x_28_27" index="867" value="1.00000"/>
  <variable name="x_29_0" index="870" value="1.00000"/>
  <variable name="x_30_0" index="900" value="1.00000"/>
  <variable name="u_1" index="930" value="34.00000"/>
  <variable name="u_2" index="931" value="24.00000"/>
  <variable name="u_3" index="932" value="9.00000"/>
  <variable name="u_4" index="933" value="16.00000"/>
  <variable name="u_5" index="934" value="28.00000"/>
  <variable name="u_6" index="935" value="34.00000"/>
  <variable name="u_7" index="936" value="31.00000"/>
  <variable name="u_8" index="937" value="30.00000"/>
  <variable name="u_9" index="938" value="24.00000"/>
  <variable name="u_10" index="939" value="34.00000"/>
  <variable name="u_11" index="940" value="25.00000"/>
  <variable name="u_12" index="941" value="34.00000"/>
  <variable name="u_13" index="942" value="34.00000"/>
  <variable name="u_14" index="943" value="34.00000"/>
  <variable name="u_15" index="944" value="34.00000"/>
  <variable name="u_16" index="945" value="34.00000"/>
  <variable name="u_17" index="946" value="29.00000"/>
  <variable name="u_18" index="947" value="21.00000"/>
  <variable name="u_19" index="948" value="19.00000"/>
  <variable name="u_20" index="949" value="20.00000"/>
  <variable name="u_21" index="950" value="29.00000"/>
  <variable name="u_22" index="951" value="34.00000"/>
  <variable name="u_23" index="952" value="28.00000"/>
  <variable name="u_24" index="953" value="34.00000"/>
  <variable name="u_25" index="954" value="34.00000"/>
  <variable name="u_26" index="955" value="23.00000"/>
  <variable name="u_27" index="956" value="34.00000"/>
  <variable name="u_28" index="957" value="17.00000"/>
  <variable name="u_29" index="958" value="34.00000"/>
  <variable name="u_30" index="959" value="34.00000"/>
 </variables>
</CPLEXSolution>
